data;


param FN:= 1;
param D:= 100;
param U_Original:=
         1         1       -6.691614e-01
         2         1        9.003327e-01
         3         1       -7.718024e-01
         4         1        3.576780e-01
         5         1        9.964783e-01
         6         1        2.262604e+00
         7         1       -1.087759e+00
         8         1        1.174042e+00
         9         1        1.409102e+00
        10         1        3.115815e-01
        11         1        3.598029e-01
        12         1        5.375722e-01
        13         1        7.291081e-01
        14         1       -9.965549e-01
        15         1        2.127716e+00
        16         1        5.736263e-01
        17         1       -2.768763e-01
        18         1        5.000608e-01
        19         1        6.853197e-01
        20         1        1.613383e+00
        21         1        2.707475e-01
        22         1        5.190418e-01
        23         1        9.678568e-01
        24         1       -3.126675e-04
        25         1        4.469496e-01
        26         1       -6.928338e-01
        27         1        4.634811e-01
        28         1        1.051628e+00
        29         1        1.787159e-01
        30         1        1.727679e-01
        31         1        1.572162e-01
        32         1       -1.327980e+00
        33         1        1.378049e+00
        34         1       -2.365559e-01
        35         1       -1.128651e+00
        36         1        8.295828e-01
        37         1       -3.540835e-01
        38         1        6.111810e-01
        39         1       -8.441826e-01
        40         1        3.414066e-01
        41         1        2.044432e+00
        42         1        7.658252e-01
        43         1       -1.778632e+00
        44         1        5.621125e-01
        45         1       -9.849631e-01
        46         1        2.573351e-01
        47         1        1.226626e+00
        48         1        1.259078e+00
        49         1       -6.102679e-01
        50         1       -1.010340e+00
        51         1       -2.157455e-01
        52         1        1.569309e+00
        53         1        1.504246e+00
        54         1       -1.797445e-03
        55         1        5.005818e-01
        56         1       -1.488978e+00
        57         1        1.029621e+00
        58         1       -2.629447e-01
        59         1        3.436002e-01
        60         1        1.116189e+00
        61         1        1.008447e+00
        62         1        1.199474e+00
        63         1       -2.600765e-01
        64         1       -4.902462e-02
        65         1        1.341655e-01
        66         1       -1.425912e+00
        67         1        1.821693e+00
        68         1        5.029644e-01
        69         1       -3.859798e-01
        70         1        1.840500e-01
        71         1        1.118225e-02
        72         1       -1.125128e+00
        73         1       -2.577990e-01
        74         1       -2.742403e-02
        75         1       -7.331351e-01
        76         1        1.732226e+00
        77         1        3.239862e-01
        78         1        1.615318e+00
        79         1        3.375423e-01
        80         1       -1.067290e+00
        81         1       -9.737315e-01
        82         1        3.053557e-01
        83         1        1.505068e+00
        84         1       -5.834928e-01
        85         1       -2.205444e-01
        86         1        1.057110e+00
        87         1       -3.954029e-02
        88         1        2.612427e+00
        89         1       -1.233580e+00
        90         1        4.624972e-01
        91         1       -1.386179e+00
        92         1       -3.426886e-01
        93         1        6.018787e-01
        94         1       -1.750255e+00
        95         1       -8.214762e-01
        96         1       -5.958041e-01
        97         1       -1.810742e+00
        98         1        1.336435e-01
        99         1       -6.975989e-01
       100         1       -1.047520e+00
         1         2        4.675634e-01
         2         2        2.654061e-01
         3         2        1.552694e-01
         4         2       -2.084601e-02
         5         2        2.136066e+00
         6         2       -3.437276e-01
         7         2       -1.137974e+00
         8         2        3.103342e-01
         9         2       -8.744513e-01
        10         2       -1.074005e+00
        11         2        9.023376e-01
        12         2       -9.310019e-01
        13         2       -1.439373e-01
        14         2       -8.404835e-02
        15         2        1.217725e+00
        16         2       -1.175381e-01
        17         2       -7.691327e-02
        18         2        1.422157e+00
        19         2        9.515931e-01
        20         2       -5.254000e-01
        21         2       -2.125406e+00
        22         2        7.214419e-01
        23         2       -9.760325e-01
        24         2       -8.017117e-01
        25         2       -1.121350e-01
        26         2        6.055165e-01
        27         2        4.850089e-02
        28         2       -1.114498e+00
        29         2        1.401135e+00
        30         2        1.356735e+00
        31         2       -1.780702e-02
        32         2       -1.477550e-01
        33         2       -6.735578e-01
        34         2        9.855903e-01
        35         2        4.881654e-01
        36         2        1.384477e+00
        37         2       -9.320539e-01
        38         2        1.845984e+00
        39         2        6.476498e-01
        40         2        5.629169e-01
        41         2       -1.846766e+00
        42         2       -7.334817e-01
        43         2        2.864409e-01
        44         2        9.031075e-02
        45         2        7.740688e-01
        46         2        1.343144e+00
        47         2        2.192412e+00
        48         2       -2.862426e-01
        49         2        1.205945e+00
        50         2       -1.288687e-01
        51         2        2.238698e+00
        52         2        3.928576e-01
        53         2       -1.834484e+00
        54         2        3.482264e-01
        55         2        1.809319e-01
        56         2       -6.094791e-01
        57         2       -1.130871e+00
        58         2        5.454041e-02
        59         2        1.332228e+00
        60         2        3.164118e-01
        61         2       -2.468776e-01
        62         2       -2.571183e+00
        63         2       -9.430027e-01
        64         2        1.367391e+00
        65         2       -6.929011e-01
        66         2        1.485585e+00
        67         2       -2.754093e-01
        68         2        1.357752e+00
        69         2       -2.078864e+00
        70         2        1.293574e-01
        71         2        8.489101e-01
        72         2        1.247403e+00
        73         2       -1.181740e+00
        74         2       -1.217122e+00
        75         2       -5.305825e-01
        76         2        2.214079e+00
        77         2       -5.629089e-01
        78         2        1.358977e+00
        79         2       -8.228273e-01
        80         2        1.253512e+00
        81         2        8.056991e-01
        82         2       -9.447049e-01
        83         2        2.933525e-01
        84         2        2.487144e-02
        85         2        1.077264e+00
        86         2        1.615206e+00
        87         2       -1.695668e+00
        88         2       -1.406812e+00
        89         2        2.376892e-01
        90         2       -5.508002e-01
        91         2       -3.401845e-02
        92         2       -7.560871e-01
        93         2        3.098584e-02
        94         2        1.361003e+00
        95         2       -1.718857e+00
        96         2       -9.803386e-01
        97         2        5.336248e-01
        98         2        1.272443e-01
        99         2       -1.175312e+00
       100         2       -1.808601e-01
         1         3       -8.150130e-01
         2         3        1.132888e+00
         3         3       -8.025814e-01
         4         3        4.179296e-01
         5         3       -4.319966e-01
         6         3       -4.229234e-01
         7         3        8.319892e-01
         8         3       -6.922666e-03
         9         3       -1.283508e+00
        10         3       -3.832155e-01
        11         3        5.503471e-01
        12         3        6.079280e-01
        13         3       -1.813455e+00
        14         3       -1.073861e+00
        15         3       -1.647439e+00
        16         3       -3.270421e-01
        17         3        7.979638e-01
        18         3       -1.580702e+00
        19         3       -3.029054e+00
        20         3       -8.188758e-01
        21         3        4.368937e-02
        22         3        1.052982e+00
        23         3       -1.193133e+00
        24         3       -5.431661e-01
        25         3       -1.082719e-03
        26         3       -1.464356e+00
        27         3        8.827758e-01
        28         3       -3.638067e-01
        29         3       -7.281320e-02
        30         3       -9.744222e-01
        31         3       -1.229157e+00
        32         3        8.449829e-01
        33         3       -2.508081e-01
        34         3       -2.133060e-01
        35         3        1.132241e-02
        36         3        8.755094e-01
        37         3       -1.715517e+00
        38         3       -5.236109e-01
        39         3        3.839188e-01
        40         3        2.809159e-01
        41         3       -1.086381e+00
        42         3       -6.565775e-01
        43         3       -2.160087e+00
        44         3        9.942010e-01
        45         3        3.061553e-01
        46         3       -1.396472e+00
        47         3        4.990197e-01
        48         3       -1.393371e-01
        49         3       -1.169080e-01
        50         3        2.067846e-01
        51         3        8.286415e-01
        52         3       -3.118671e-01
        53         3        7.276677e-01
        54         3        4.973694e-01
        55         3       -1.639336e+00
        56         3       -1.505800e-01
        57         3        1.620676e+00
        58         3       -9.930429e-01
        59         3        3.572072e-01
        60         3       -4.017222e-01
        61         3       -5.030873e-01
        62         3        9.346181e-01
        63         3       -1.223264e+00
        64         3        5.952390e-01
        65         3       -4.982203e-01
        66         3        2.793859e-01
        67         3        2.617169e+00
        68         3       -8.123718e-01
        69         3       -5.101365e-01
        70         3        2.027804e+00
        71         3        3.367275e-01
        72         3       -6.070326e-01
        73         3       -8.962524e-01
        74         3       -4.777013e-01
        75         3        1.663843e-02
        76         3        9.452259e-01
        77         3       -1.185458e-01
        78         3       -5.113824e-01
        79         3       -1.244188e+00
        80         3        3.571602e-01
        81         3       -8.266918e-01
        82         3        1.326293e-02
        83         3       -1.078590e-02
        84         3        6.320690e-01
        85         3       -1.150944e+00
        86         3        4.346020e-02
        87         3       -2.181495e+00
        88         3        2.245762e+00
        89         3        1.157137e-01
        90         3        1.146201e+00
        91         3       -4.033220e-01
        92         3        4.834581e-01
        93         3        1.116024e+00
        94         3       -5.993610e-02
        95         3       -4.190455e-01
        96         3       -5.024722e-01
        97         3       -7.400809e-01
        98         3       -1.064347e+00
        99         3       -9.710228e-01
       100         3        1.058021e-01
         1         4        1.275594e-01
         2         4        9.965449e-01
         3         4        9.840037e-01
         4         4       -1.043009e+00
         5         4       -1.701717e+00
         6         4        3.544718e-01
         7         4        7.863460e-01
         8         4       -1.124584e+00
         9         4        9.782532e-01
        10         4        6.230153e-01
        11         4       -7.528179e-02
        12         4        9.805047e-01
        13         4       -5.611867e-02
        14         4        7.043424e-02
        15         4        1.023143e-01
        16         4        1.133661e+00
        17         4        6.007521e-01
        18         4       -3.743263e-01
        19         4        6.653107e-02
        20         4       -2.027881e-01
        21         4        1.386708e+00
        22         4       -1.143339e+00
        23         4        1.037669e+00
        24         4        5.151120e-01
        25         4        7.636850e-01
        26         4        1.372396e-01
        27         4        1.488310e+00
        28         4        9.367641e-01
        29         4        1.023289e+00
        30         4        2.932678e-01
        31         4        3.318775e-01
        32         4       -9.520320e-01
        33         4        3.277421e-01
        34         4       -6.484574e-01
        35         4       -4.645534e-01
        36         4        7.306383e-01
        37         4       -1.277974e+00
        38         4       -1.103463e+00
        39         4        9.678721e-01
        40         4        1.847617e+00
        41         4       -1.131791e+00
        42         4       -3.740522e-01
        43         4       -1.231761e+00
        44         4       -1.646806e-01
        45         4       -2.393695e-01
        46         4        1.904403e-01
        47         4        5.966686e-02
        48         4       -1.057827e+00
        49         4        4.792045e-01
        50         4        4.677459e-01
        51         4       -1.904858e+00
        52         4       -6.922882e-01
        53         4        2.970257e-01
        54         4       -5.805549e-01
        55         4        8.249612e-01
        56         4       -1.685749e-01
        57         4       -2.329044e+00
        58         4       -1.568386e+00
        59         4       -2.267409e-01
        60         4       -9.156542e-02
        61         4        9.429528e-02
        62         4       -1.053949e+00
        63         4        2.237188e-01
        64         4       -9.896288e-01
        65         4        1.159307e+00
        66         4        3.076661e+00
        67         4       -1.915093e-01
        68         4        3.964025e-01
        69         4       -7.741811e-01
        70         4       -1.357524e-01
        71         4       -1.453124e+00
        72         4       -6.902000e-01
        73         4       -4.460123e-01
        74         4        3.447856e-02
        75         4       -8.559155e-01
        76         4       -1.033652e+00
        77         4        9.538642e-01
        78         4        1.143453e+00
        79         4        1.468048e+00
        80         4       -2.055978e+00
        81         4       -2.718513e-01
        82         4       -5.139628e-01
        83         4       -1.354472e+00
        84         4        9.934445e-02
        85         4        4.942530e-01
        86         4        1.179089e+00
        87         4       -2.757056e+00
        88         4        1.430851e+00
        89         4        4.040719e-01
        90         4        6.765559e-01
        91         4       -5.955261e-01
        92         4       -5.073176e-01
        93         4       -4.978407e-01
        94         4       -1.655020e+00
        95         4       -1.324275e-01
        96         4       -8.391687e-01
        97         4       -1.539610e+00
        98         4        1.424000e+00
        99         4       -6.263372e-01
       100         4       -1.408108e+00
         1         5       -6.654696e-01
         2         5       -1.868346e-01
         3         5       -9.425411e-01
         4         5       -5.701100e-01
         5         5        8.813863e-02
         6         5       -6.910277e-01
         7         5       -6.689868e-01
         8         5       -2.106107e-01
         9         5        3.938540e-01
        10         5        5.767631e-01
        11         5        7.875735e-01
        12         5        1.301554e+00
        13         5       -1.071587e+00
        14         5       -1.514134e+00
        15         5       -1.154288e-01
        16         5       -8.916172e-02
        17         5        1.522337e+00
        18         5       -9.183127e-01
        19         5        5.721130e-01
        20         5        1.370144e-01
        21         5        3.027101e-01
        22         5        1.646911e+00
        23         5        1.645257e+00
        24         5        5.714072e-01
        25         5       -1.332776e+00
        26         5        1.372701e+00
        27         5        9.222880e-01
        28         5        8.563003e-01
        29         5       -1.010682e+00
        30         5       -6.965465e-01
        31         5       -2.997216e-01
        32         5        7.716291e-02
        33         5        3.620820e-01
        34         5       -6.202411e-01
        35         5        2.628752e-01
        36         5       -8.657428e-01
        37         5       -2.368875e-01
        38         5        8.867914e-01
        39         5        1.937225e+00
        40         5        8.023674e-01
        41         5        2.167321e+00
        42         5        1.636931e+00
        43         5        7.483027e-02
        44         5       -7.529470e-01
        45         5        3.252841e-01
        46         5       -3.585896e-01
        47         5       -1.026486e+00
        48         5       -5.592431e-01
        49         5        8.442983e-01
        50         5        7.842179e-01
        51         5        1.419536e+00
        52         5       -2.076851e+00
        53         5        5.492817e-01
        54         5        1.129282e+00
        55         5       -1.348080e-01
        56         5       -4.710784e-01
        57         5       -1.378393e+00
        58         5       -4.847561e-02
        59         5        2.004821e+00
        60         5        1.244879e+00
        61         5        1.555621e+00
        62         5       -6.004055e-01
        63         5        1.859044e-01
        64         5        7.018977e-01
        65         5       -4.530440e-01
        66         5       -5.143858e-02
        67         5        2.600378e-02
        68         5        4.936299e-02
        69         5        2.711824e-01
        70         5       -1.701201e-01
        71         5        4.860183e-01
        72         5       -1.648922e-01
        73         5        4.055846e-01
        74         5       -5.771136e-01
        75         5       -6.288774e-01
        76         5        1.408690e-01
        77         5       -5.527989e-01
        78         5        9.212863e-01
        79         5       -1.412170e+00
        80         5        1.078544e+00
        81         5       -7.884795e-01
        82         5       -5.654364e-02
        83         5        5.171013e-01
        84         5        1.720494e+00
        85         5       -8.347268e-01
        86         5       -1.275187e+00
        87         5        1.537151e+00
        88         5        9.128264e-01
        89         5        1.449456e+00
        90         5       -4.454967e-01
        91         5       -4.910758e-01
        92         5       -1.119269e+00
        93         5        2.825406e+00
        94         5       -1.306975e+00
        95         5        1.131505e+00
        96         5       -3.038278e-01
        97         5        6.533912e-01
        98         5        9.383305e-01
        99         5        4.506941e-01
       100         5        9.312634e-01
;
param X_Original:=
    1       -1.620443e-01
    2       -9.376070e-01
    3       -3.241756e-01
    4       -3.016895e-01
    5       -1.923493e+00
    6        5.581011e-01
    7        6.566609e-01
    8        2.686826e-01
    9       -2.092228e+00
   10        1.566253e+00
   11       -6.059412e-01
   12        1.132254e+00
   13       -7.698394e-01
   14       -2.248330e+00
   15       -1.276635e+00
   16        2.444254e-01
   17        3.329987e-02
   18        1.736230e+00
   19       -2.332430e-01
   20        3.696800e-01
   21        3.315108e-03
   22        5.194693e-01
   23       -4.158324e-01
   24        1.152383e+00
   25       -1.365249e+00
   26        5.416753e-01
   27       -4.207237e-01
   28       -7.884368e-01
   29       -1.045749e+00
   30       -8.660850e-01
   31       -3.088656e-01
   32        4.803478e-01
   33       -1.164959e-01
   34       -1.098301e+00
   35       -1.670463e-01
   36        2.782125e-01
   37        7.893981e-01
   38       -6.994757e-01
   39       -5.680682e-01
   40        1.759073e+00
   41        2.637108e-01
   42        2.377877e-01
   43        7.385686e-01
   44       -5.818379e-01
   45       -2.079508e+00
   46        5.875491e-01
   47        2.740643e+00
   48        6.089259e-01
   49        5.922842e-01
   50       -2.884507e-02
   51        5.933811e+00
   52        1.232396e+00
   53        1.760375e-01
   54        2.417773e+00
   55       -8.416951e-01
   56       -8.479355e-01
   57       -1.129946e+00
   58       -8.772098e-01
   59        1.561770e+00
   60       -1.345487e-01
   61        4.420180e-01
   62       -1.421820e-01
   63       -1.746820e+00
   64        8.347318e-01
   65       -2.270017e-01
   66       -2.411049e-01
   67        8.375439e-01
   68       -9.209889e-02
   69        3.103050e-01
   70        1.278556e+00
   71        1.066428e+00
   72       -2.081155e-01
   73        6.648814e-01
   74        9.685598e-01
   75        1.804298e-01
   76        1.332179e+00
   77        1.441864e+00
   78        6.102221e-01
   79        8.542839e-01
   80       -1.755595e+00
   81       -6.152638e-01
   82       -8.359146e-01
   83       -6.195547e-02
   84        1.739749e-01
   85        7.577194e-01
   86       -3.668033e-01
   87       -3.112385e-01
   88       -1.166248e+00
   89       -1.005463e+00
   90       -2.353403e+00
   91        2.269536e+00
   92        9.030084e-01
   93       -1.406134e+00
   94        1.296560e+00
   95        1.110689e+00
   96        3.716102e-01
   97       -3.730031e-01
   98        8.899349e-01
   99       -5.537205e-01
  100        2.100513e+00
;
param outliervec_original :=
    1    1
    2    1
    3    1
    4    0
    5    1
    6    1
    7    1
    8    1
    9    0
   10    1
   11    1
   12    1
   13    1
   14    0
   15    1
   16    1
   17    1
   18    1
   19    1
   20    1
   21    1
   22    1
   23    1
   24    1
   25    1
   26    1
   27    1
   28    1
   29    1
   30    1
   31    1
   32    1
   33    1
   34    1
   35    1
   36    0
   37    1
   38    1
   39    1
   40    1
   41    1
   42    1
   43    0
   44    1
   45    1
   46    1
   47    1
   48    1
   49    1
   50    1
   51    0
   52    1
   53    1
   54    0
   55    1
   56    1
   57    1
   58    1
   59    1
   60    1
   61    1
   62    1
   63    1
   64    1
   65    1
   66    1
   67    1
   68    1
   69    1
   70    1
   71    1
   72    1
   73    1
   74    1
   75    1
   76    1
   77    1
   78    1
   79    1
   80    1
   81    1
   82    1
   83    1
   84    1
   85    1
   86    1
   87    1
   88    0
   89    1
   90    1
   91    1
   92    1
   93    1
   94    0
   95    1
   96    1
   97    1
   98    1
   99    1
  100    0
;
param d:= 55;
param r:=5;
param p:=0.900000;
param M:=1000;
param U:=
         1         1       -6.691614e-01
         2         1        9.003327e-01
         3         1        2.262604e+00
         4         1        1.409102e+00
         5         1        7.291081e-01
         6         1       -9.965549e-01
         7         1       -2.768763e-01
         8         1        5.000608e-01
         9         1        6.853197e-01
        10         1        1.613383e+00
        11         1        9.678568e-01
        12         1        4.469496e-01
        13         1       -6.928338e-01
        14         1        4.634811e-01
        15         1        1.051628e+00
        16         1        1.787159e-01
        17         1        1.572162e-01
        18         1       -1.327980e+00
        19         1        1.378049e+00
        20         1       -1.128651e+00
        21         1        8.295828e-01
        22         1       -3.540835e-01
        23         1       -8.441826e-01
        24         1        7.658252e-01
        25         1       -1.778632e+00
        26         1        2.573351e-01
        27         1        1.226626e+00
        28         1       -6.102679e-01
        29         1       -1.010340e+00
        30         1       -2.157455e-01
        31         1        1.569309e+00
        32         1        1.504246e+00
        33         1       -1.797445e-03
        34         1        5.005818e-01
        35         1       -1.488978e+00
        36         1        3.436002e-01
        37         1        1.008447e+00
        38         1        1.199474e+00
        39         1       -2.600765e-01
        40         1        1.821693e+00
        41         1        5.029644e-01
        42         1       -3.859798e-01
        43         1        1.840500e-01
        44         1       -7.331351e-01
        45         1        1.615318e+00
        46         1       -9.737315e-01
        47         1       -5.834928e-01
        48         1        1.057110e+00
        49         1        2.612427e+00
        50         1       -1.233580e+00
        51         1        4.624972e-01
        52         1       -1.750255e+00
        53         1       -5.958041e-01
        54         1       -6.975989e-01
        55         1       -1.047520e+00
         1         2        4.675634e-01
         2         2        2.654061e-01
         3         2       -3.437276e-01
         4         2       -8.744513e-01
         5         2       -1.439373e-01
         6         2       -8.404835e-02
         7         2       -7.691327e-02
         8         2        1.422157e+00
         9         2        9.515931e-01
        10         2       -5.254000e-01
        11         2       -9.760325e-01
        12         2       -1.121350e-01
        13         2        6.055165e-01
        14         2        4.850089e-02
        15         2       -1.114498e+00
        16         2        1.401135e+00
        17         2       -1.780702e-02
        18         2       -1.477550e-01
        19         2       -6.735578e-01
        20         2        4.881654e-01
        21         2        1.384477e+00
        22         2       -9.320539e-01
        23         2        6.476498e-01
        24         2       -7.334817e-01
        25         2        2.864409e-01
        26         2        1.343144e+00
        27         2        2.192412e+00
        28         2        1.205945e+00
        29         2       -1.288687e-01
        30         2        2.238698e+00
        31         2        3.928576e-01
        32         2       -1.834484e+00
        33         2        3.482264e-01
        34         2        1.809319e-01
        35         2       -6.094791e-01
        36         2        1.332228e+00
        37         2       -2.468776e-01
        38         2       -2.571183e+00
        39         2       -9.430027e-01
        40         2       -2.754093e-01
        41         2        1.357752e+00
        42         2       -2.078864e+00
        43         2        1.293574e-01
        44         2       -5.305825e-01
        45         2        1.358977e+00
        46         2        8.056991e-01
        47         2        2.487144e-02
        48         2        1.615206e+00
        49         2       -1.406812e+00
        50         2        2.376892e-01
        51         2       -5.508002e-01
        52         2        1.361003e+00
        53         2       -9.803386e-01
        54         2       -1.175312e+00
        55         2       -1.808601e-01
         1         3       -8.150130e-01
         2         3        1.132888e+00
         3         3       -4.229234e-01
         4         3       -1.283508e+00
         5         3       -1.813455e+00
         6         3       -1.073861e+00
         7         3        7.979638e-01
         8         3       -1.580702e+00
         9         3       -3.029054e+00
        10         3       -8.188758e-01
        11         3       -1.193133e+00
        12         3       -1.082719e-03
        13         3       -1.464356e+00
        14         3        8.827758e-01
        15         3       -3.638067e-01
        16         3       -7.281320e-02
        17         3       -1.229157e+00
        18         3        8.449829e-01
        19         3       -2.508081e-01
        20         3        1.132241e-02
        21         3        8.755094e-01
        22         3       -1.715517e+00
        23         3        3.839188e-01
        24         3       -6.565775e-01
        25         3       -2.160087e+00
        26         3       -1.396472e+00
        27         3        4.990197e-01
        28         3       -1.169080e-01
        29         3        2.067846e-01
        30         3        8.286415e-01
        31         3       -3.118671e-01
        32         3        7.276677e-01
        33         3        4.973694e-01
        34         3       -1.639336e+00
        35         3       -1.505800e-01
        36         3        3.572072e-01
        37         3       -5.030873e-01
        38         3        9.346181e-01
        39         3       -1.223264e+00
        40         3        2.617169e+00
        41         3       -8.123718e-01
        42         3       -5.101365e-01
        43         3        2.027804e+00
        44         3        1.663843e-02
        45         3       -5.113824e-01
        46         3       -8.266918e-01
        47         3        6.320690e-01
        48         3        4.346020e-02
        49         3        2.245762e+00
        50         3        1.157137e-01
        51         3        1.146201e+00
        52         3       -5.993610e-02
        53         3       -5.024722e-01
        54         3       -9.710228e-01
        55         3        1.058021e-01
         1         4        1.275594e-01
         2         4        9.965449e-01
         3         4        3.544718e-01
         4         4        9.782532e-01
         5         4       -5.611867e-02
         6         4        7.043424e-02
         7         4        6.007521e-01
         8         4       -3.743263e-01
         9         4        6.653107e-02
        10         4       -2.027881e-01
        11         4        1.037669e+00
        12         4        7.636850e-01
        13         4        1.372396e-01
        14         4        1.488310e+00
        15         4        9.367641e-01
        16         4        1.023289e+00
        17         4        3.318775e-01
        18         4       -9.520320e-01
        19         4        3.277421e-01
        20         4       -4.645534e-01
        21         4        7.306383e-01
        22         4       -1.277974e+00
        23         4        9.678721e-01
        24         4       -3.740522e-01
        25         4       -1.231761e+00
        26         4        1.904403e-01
        27         4        5.966686e-02
        28         4        4.792045e-01
        29         4        4.677459e-01
        30         4       -1.904858e+00
        31         4       -6.922882e-01
        32         4        2.970257e-01
        33         4       -5.805549e-01
        34         4        8.249612e-01
        35         4       -1.685749e-01
        36         4       -2.267409e-01
        37         4        9.429528e-02
        38         4       -1.053949e+00
        39         4        2.237188e-01
        40         4       -1.915093e-01
        41         4        3.964025e-01
        42         4       -7.741811e-01
        43         4       -1.357524e-01
        44         4       -8.559155e-01
        45         4        1.143453e+00
        46         4       -2.718513e-01
        47         4        9.934445e-02
        48         4        1.179089e+00
        49         4        1.430851e+00
        50         4        4.040719e-01
        51         4        6.765559e-01
        52         4       -1.655020e+00
        53         4       -8.391687e-01
        54         4       -6.263372e-01
        55         4       -1.408108e+00
         1         5       -6.654696e-01
         2         5       -1.868346e-01
         3         5       -6.910277e-01
         4         5        3.938540e-01
         5         5       -1.071587e+00
         6         5       -1.514134e+00
         7         5        1.522337e+00
         8         5       -9.183127e-01
         9         5        5.721130e-01
        10         5        1.370144e-01
        11         5        1.645257e+00
        12         5       -1.332776e+00
        13         5        1.372701e+00
        14         5        9.222880e-01
        15         5        8.563003e-01
        16         5       -1.010682e+00
        17         5       -2.997216e-01
        18         5        7.716291e-02
        19         5        3.620820e-01
        20         5        2.628752e-01
        21         5       -8.657428e-01
        22         5       -2.368875e-01
        23         5        1.937225e+00
        24         5        1.636931e+00
        25         5        7.483027e-02
        26         5       -3.585896e-01
        27         5       -1.026486e+00
        28         5        8.442983e-01
        29         5        7.842179e-01
        30         5        1.419536e+00
        31         5       -2.076851e+00
        32         5        5.492817e-01
        33         5        1.129282e+00
        34         5       -1.348080e-01
        35         5       -4.710784e-01
        36         5        2.004821e+00
        37         5        1.555621e+00
        38         5       -6.004055e-01
        39         5        1.859044e-01
        40         5        2.600378e-02
        41         5        4.936299e-02
        42         5        2.711824e-01
        43         5       -1.701201e-01
        44         5       -6.288774e-01
        45         5        9.212863e-01
        46         5       -7.884795e-01
        47         5        1.720494e+00
        48         5       -1.275187e+00
        49         5        9.128264e-01
        50         5        1.449456e+00
        51         5       -4.454967e-01
        52         5       -1.306975e+00
        53         5       -3.038278e-01
        54         5        4.506941e-01
        55         5        9.312634e-01
;

param theta:=
    1       -3.976269e-01
    2        1.229327e+00
    3        4.407181e-01
    4       -4.306783e-01
    5        1.345759e+00
;
param X_true:=
    1       -4.688249e-01
    2       -2.130660e-01
    3       -2.591236e+00
    4       -2.092228e+00
    5       -2.684011e+00
    6       -2.248330e+00
    7        2.157187e+00
    8       -2.217981e-01
    9        3.036318e-01
   10       -1.376582e+00
   11       -3.433258e-01
   12       -2.438546e+00
   13        2.162719e+00
   14        8.645811e-01
   15       -1.199645e+00
   16       -1.815427e-01
   17       -1.172401e+00
   18        1.232663e+00
   19       -1.140384e+00
   20        1.607727e+00
   21        2.782125e-01
   22       -1.529463e+00
   23        3.491240e+00
   24        8.684434e-01
   25        7.385686e-01
   26        3.687962e-01
   27        1.020279e+00
   28        2.603475e+00
   29        1.188371e+00
   30        5.933811e+00
   31       -2.775282e+00
   32       -1.921335e+00
   33        2.417773e+00
   34       -1.235817e+00
   35       -7.849114e-01
   36        4.454206e+00
   37        1.126682e+00
   38       -3.579955e+00
   39       -1.441129e+00
   40        2.079851e-01
   41        1.006811e+00
   42       -1.928586e+00
   43        8.090540e-01
   44       -8.311059e-01
   45        1.550327e+00
   46        6.928860e-02
   47        2.813737e+00
   48       -6.394665e-01
   49       -1.166248e+00
   50        2.610294e+00
   51       -1.246773e+00
   52        1.296560e+00
   53       -1.237165e+00
   54       -7.191311e-01
   55        2.100513e+00
;
param X:=
    1       -1.620443e-01
    2       -9.376070e-01
    3        5.581011e-01
    4       -2.092228e+00
    5       -7.698394e-01
    6       -2.248330e+00
    7        3.329987e-02
    8        1.736230e+00
    9       -2.332430e-01
   10        3.696800e-01
   11       -4.158324e-01
   12       -1.365249e+00
   13        5.416753e-01
   14       -4.207237e-01
   15       -7.884368e-01
   16       -1.045749e+00
   17       -3.088656e-01
   18        4.803478e-01
   19       -1.164959e-01
   20       -1.670463e-01
   21        2.782125e-01
   22        7.893981e-01
   23       -5.680682e-01
   24        2.377877e-01
   25        7.385686e-01
   26        5.875491e-01
   27        2.740643e+00
   28        5.922842e-01
   29       -2.884507e-02
   30        5.933811e+00
   31        1.232396e+00
   32        1.760375e-01
   33        2.417773e+00
   34       -8.416951e-01
   35       -8.479355e-01
   36        1.561770e+00
   37        4.420180e-01
   38       -1.421820e-01
   39       -1.746820e+00
   40        8.375439e-01
   41       -9.209889e-02
   42        3.103050e-01
   43        1.278556e+00
   44        1.804298e-01
   45        6.102221e-01
   46       -6.152638e-01
   47        1.739749e-01
   48       -3.668033e-01
   49       -1.166248e+00
   50       -1.005463e+00
   51       -2.353403e+00
   52        1.296560e+00
   53        3.716102e-01
   54       -5.537205e-01
   55        2.100513e+00
;
param outliervec:=
    1    1
    2    1
    3    1
    4    0
    5    1
    6    0
    7    1
    8    1
    9    1
   10    1
   11    1
   12    1
   13    1
   14    1
   15    1
   16    1
   17    1
   18    1
   19    1
   20    1
   21    0
   22    1
   23    1
   24    1
   25    0
   26    1
   27    1
   28    1
   29    1
   30    0
   31    1
   32    1
   33    0
   34    1
   35    1
   36    1
   37    1
   38    1
   39    1
   40    1
   41    1
   42    1
   43    1
   44    1
   45    1
   46    1
   47    1
   48    1
   49    0
   50    1
   51    1
   52    0
   53    1
   54    1
   55    0
; 
param greedy_time :=         2.550939e-01
;